p cnf 21 30
-6 -14 -10 -17 0
-3 -12 -11 -15 0
-3 -14 -11 -17 0
-16 18 -13 0
-6 -11 -18 0
-5 -18 -9 0
-5 -10 -18 0
-7 -2 -18 0
-10 -18 -2 0
-15 19 -12 -2 0
-11 -19 0
-19 -9 0
-7 -19 0
-19 -10 0
-16 -14 20 0
-7 -20 -3 0
-7 -4 -20 0
-8 -6 -20 0
-6 -20 -11 0
21 -3 -18 0
-21 -9 0
-21 -11 0
-7 -21 0
-8 -21 0
-21 -10 0
-4 -18 22 0
-7 -22 0
-8 -22 0
-22 -9 0
-22 -11 0
